
Gurobi 10.0.0 (linux64) logging started Thu Nov 24 11:17:37 2022

Set parameter LogFile to value "../results/k04_n050_d005/k04_n060_d010_GEOM60_BQO_log.txt"
Gurobi Optimizer version 10.0.0 build v10.0.0rc2 (linux64)

CPU model: Intel(R) Xeon(R) CPU E5-2630 v4 @ 2.20GHz, instruction set [SSE2|AVX|AVX2]
Thread count: 20 physical cores, 40 logical processors, using up to 10 threads

Optimize a model with 60 rows, 240 columns and 240 nonzeros
Model fingerprint: 0xf42bf181
Model has 740 quadratic objective terms
Coefficient statistics:
  Matrix range     [1e+00, 1e+00]
  Objective range  [0e+00, 0e+00]
  QObjective range [2e+00, 2e+01]
  Bounds range     [1e+00, 1e+00]
  RHS range        [1e+00, 1e+00]
Presolve removed 1 rows and 4 columns

Continuous model is non-convex -- solving as a MIP

Presolve removed 1 rows and 4 columns
Presolve time: 0.00s
Presolved: 1516 rows, 965 columns, 3877 nonzeros
Presolved model has 728 bilinear constraint(s)
Variable types: 965 continuous, 0 integer (0 binary)

Root relaxation: objective 9.730000e+02, 452 iterations, 0.01 seconds (0.01 work units)

    Nodes    |    Current Node    |     Objective Bounds      |     Work
 Expl Unexpl |  Obj  Depth IntInf | Incumbent    BestBd   Gap | It/Node Time

     0     0  973.00000    0  230          -  973.00000      -     -    0s
H    0     0                     665.2500000  973.00000  46.3%     -    0s
H    0     0                     883.8388530  973.00000  10.1%     -    0s
     0     0  973.00000    0  213  883.83885  973.00000  10.1%     -    0s
     0     0  973.00000    0  265  883.83885  973.00000  10.1%     -    0s
     0     0  973.00000    0  200  883.83885  973.00000  10.1%     -    0s
     0     0  972.66667    0  270  883.83885  972.66667  10.1%     -    0s
     0     0  972.66667    0  253  883.83885  972.66667  10.1%     -    0s
     0     0  972.00000    0  143  883.83885  972.00000  10.0%     -    0s
     0     0  971.33333    0  227  883.83885  971.33333  9.90%     -    0s
     0     0  969.95000    0  286  883.83885  969.95000  9.74%     -    0s
     0     0  969.50417    0  259  883.83885  969.50417  9.69%     -    0s
     0     0  967.23333    0  312  883.83885  967.23333  9.44%     -    0s
     0     0  966.60909    0  363  883.83885  966.60909  9.36%     -    0s
     0     0  960.16667    0  274  883.83885  960.16667  8.64%     -    0s
     0     0  960.00000    0  269  883.83885  960.00000  8.62%     -    0s
     0     0  955.56667    0  313  883.83885  955.56667  8.12%     -    0s
     0     0  955.26667    0  314  883.83885  955.26667  8.08%     -    0s
     0     0  952.97222    0  280  883.83885  952.97222  7.82%     -    0s
     0     0  952.37963    0  331  883.83885  952.37963  7.75%     -    0s
     0     0  950.91667    0  295  883.83885  950.91667  7.59%     -    0s
     0     0  950.58333    0  400  883.83885  950.58333  7.55%     -    0s
     0     0  945.43333    0  176  883.83885  945.43333  6.97%     -    0s
     0     0  945.40000    0  272  883.83885  945.40000  6.97%     -    0s
     0     0  943.28333    0  334  883.83885  943.28333  6.73%     -    0s
     0     0  942.24028    0  305  883.83885  942.24028  6.61%     -    0s
     0     0  937.25000    0  258  883.83885  937.25000  6.04%     -    0s
     0     0  937.16667    0  270  883.83885  937.16667  6.03%     -    0s
     0     0  935.08333    0  226  883.83885  935.08333  5.80%     -    0s
     0     0  935.08333    0  239  883.83885  935.08333  5.80%     -    0s
     0     0  934.75000    0  228  883.83885  934.75000  5.76%     -    0s
     0     0  934.57143    0  231  883.83885  934.57143  5.74%     -    0s
     0     0  933.00000    0  164  883.83885  933.00000  5.56%     -    0s
     0     0  933.00000    0  130  883.83885  933.00000  5.56%     -    0s
     0     0  933.00000    0  169  883.83885  933.00000  5.56%     -    0s
H    0     0                     890.5318878  933.00000  4.77%     -    0s
H    0     0                     895.2790799  933.00000  4.21%     -    0s
H    0     0                     900.4492188  933.00000  3.61%     -    0s
H    0     0                     900.5742188  933.00000  3.60%     -    0s
     0     2  933.00000    0  169  900.57422  933.00000  3.60%     -    0s
*   18    22               4     932.0000000  933.00000  0.11%  94.6    0s

Cutting planes:
  RLT: 126
  BQP: 250

Explored 955 nodes (43527 simplex iterations) in 2.17 seconds (0.85 work units)
Thread count was 10 (of 40 available processors)

Solution count 7: 932 900.574 900.449 ... 665.25

Optimal solution found (tolerance 0.00e+00)
Best objective 9.320000000000e+02, best bound 9.320000000000e+02, gap 0.0000%
